100
986 589 848 314 255 905 435 607 979 749 570 474 318 264 563 235 593 263 597 190 377 333 311 100 675 960 299 154 438 303 206 855 801 7 364 956 690 821 76 835 416 661 478 738 478 593 221 889 501 358 453 334 677 56 537 346 359 230 505 885 601 152 487 684 599 997 909 515 866 529 860 717 616 59 523 88 193 732 2 798 689 563 242 709 486 70 380 696 760 811 618 527 375 621 54 826 102 602 437 651 
675 233 95 576 495 625 509 544 904 548 968 181 152 834 858 367 378 746 451 570 9 204 491 77 117 97 622 700 235 20 529 272 551 706 296 857 865 292 17 437 289 29 512 363 864 591 680 96 893 464 995 843 824 98 702 276 158 65 308 358 850 157 958 350 284 47 892 747 889 936 778 309 743 36 697 371 771 230 696 709 441 341 936 207 999 588 529 710 103 200 692 261 39 34 806 433 182 316 710 267 
25578
